c Chain-structured CNF
c Generated CNF instance
p cnf 500 1496
-1 2 0
1 2 0
-2 3 0
2 3 0
-2 -1 1 0
-3 4 0
3 4 0
-3 -2 2 0
-4 5 0
4 5 0
-4 -3 3 0
-5 6 0
5 6 0
-5 -4 4 0
-6 7 0
6 7 0
-6 -5 5 0
-7 8 0
7 8 0
-7 -6 6 0
-8 9 0
8 9 0
-8 -7 7 0
-9 10 0
9 10 0
-9 -8 8 0
-10 11 0
10 11 0
-10 -9 9 0
-11 12 0
11 12 0
-11 -10 10 0
-12 13 0
12 13 0
-12 -11 11 0
-13 14 0
13 14 0
-13 -12 12 0
-14 15 0
14 15 0
-14 -13 13 0
-15 16 0
15 16 0
-15 -14 14 0
-16 17 0
16 17 0
-16 -15 15 0
-17 18 0
17 18 0
-17 -16 16 0
-18 19 0
18 19 0
-18 -17 17 0
-19 20 0
19 20 0
-19 -18 18 0
-20 21 0
20 21 0
-20 -19 19 0
-21 22 0
21 22 0
-21 -20 20 0
-22 23 0
22 23 0
-22 -21 21 0
-23 24 0
23 24 0
-23 -22 22 0
-24 25 0
24 25 0
-24 -23 23 0
-25 26 0
25 26 0
-25 -24 24 0
-26 27 0
26 27 0
-26 -25 25 0
-27 28 0
27 28 0
-27 -26 26 0
-28 29 0
28 29 0
-28 -27 27 0
-29 30 0
29 30 0
-29 -28 28 0
-30 31 0
30 31 0
-30 -29 29 0
-31 32 0
31 32 0
-31 -30 30 0
-32 33 0
32 33 0
-32 -31 31 0
-33 34 0
33 34 0
-33 -32 32 0
-34 35 0
34 35 0
-34 -33 33 0
-35 36 0
35 36 0
-35 -34 34 0
-36 37 0
36 37 0
-36 -35 35 0
-37 38 0
37 38 0
-37 -36 36 0
-38 39 0
38 39 0
-38 -37 37 0
-39 40 0
39 40 0
-39 -38 38 0
-40 41 0
40 41 0
-40 -39 39 0
-41 42 0
41 42 0
-41 -40 40 0
-42 43 0
42 43 0
-42 -41 41 0
-43 44 0
43 44 0
-43 -42 42 0
-44 45 0
44 45 0
-44 -43 43 0
-45 46 0
45 46 0
-45 -44 44 0
-46 47 0
46 47 0
-46 -45 45 0
-47 48 0
47 48 0
-47 -46 46 0
-48 49 0
48 49 0
-48 -47 47 0
-49 50 0
49 50 0
-49 -48 48 0
-50 51 0
50 51 0
-50 -49 49 0
-51 52 0
51 52 0
-51 -50 50 0
-52 53 0
52 53 0
-52 -51 51 0
-53 54 0
53 54 0
-53 -52 52 0
-54 55 0
54 55 0
-54 -53 53 0
-55 56 0
55 56 0
-55 -54 54 0
-56 57 0
56 57 0
-56 -55 55 0
-57 58 0
57 58 0
-57 -56 56 0
-58 59 0
58 59 0
-58 -57 57 0
-59 60 0
59 60 0
-59 -58 58 0
-60 61 0
60 61 0
-60 -59 59 0
-61 62 0
61 62 0
-61 -60 60 0
-62 63 0
62 63 0
-62 -61 61 0
-63 64 0
63 64 0
-63 -62 62 0
-64 65 0
64 65 0
-64 -63 63 0
-65 66 0
65 66 0
-65 -64 64 0
-66 67 0
66 67 0
-66 -65 65 0
-67 68 0
67 68 0
-67 -66 66 0
-68 69 0
68 69 0
-68 -67 67 0
-69 70 0
69 70 0
-69 -68 68 0
-70 71 0
70 71 0
-70 -69 69 0
-71 72 0
71 72 0
-71 -70 70 0
-72 73 0
72 73 0
-72 -71 71 0
-73 74 0
73 74 0
-73 -72 72 0
-74 75 0
74 75 0
-74 -73 73 0
-75 76 0
75 76 0
-75 -74 74 0
-76 77 0
76 77 0
-76 -75 75 0
-77 78 0
77 78 0
-77 -76 76 0
-78 79 0
78 79 0
-78 -77 77 0
-79 80 0
79 80 0
-79 -78 78 0
-80 81 0
80 81 0
-80 -79 79 0
-81 82 0
81 82 0
-81 -80 80 0
-82 83 0
82 83 0
-82 -81 81 0
-83 84 0
83 84 0
-83 -82 82 0
-84 85 0
84 85 0
-84 -83 83 0
-85 86 0
85 86 0
-85 -84 84 0
-86 87 0
86 87 0
-86 -85 85 0
-87 88 0
87 88 0
-87 -86 86 0
-88 89 0
88 89 0
-88 -87 87 0
-89 90 0
89 90 0
-89 -88 88 0
-90 91 0
90 91 0
-90 -89 89 0
-91 92 0
91 92 0
-91 -90 90 0
-92 93 0
92 93 0
-92 -91 91 0
-93 94 0
93 94 0
-93 -92 92 0
-94 95 0
94 95 0
-94 -93 93 0
-95 96 0
95 96 0
-95 -94 94 0
-96 97 0
96 97 0
-96 -95 95 0
-97 98 0
97 98 0
-97 -96 96 0
-98 99 0
98 99 0
-98 -97 97 0
-99 100 0
99 100 0
-99 -98 98 0
-100 101 0
100 101 0
-100 -99 99 0
-101 102 0
101 102 0
-101 -100 100 0
-102 103 0
102 103 0
-102 -101 101 0
-103 104 0
103 104 0
-103 -102 102 0
-104 105 0
104 105 0
-104 -103 103 0
-105 106 0
105 106 0
-105 -104 104 0
-106 107 0
106 107 0
-106 -105 105 0
-107 108 0
107 108 0
-107 -106 106 0
-108 109 0
108 109 0
-108 -107 107 0
-109 110 0
109 110 0
-109 -108 108 0
-110 111 0
110 111 0
-110 -109 109 0
-111 112 0
111 112 0
-111 -110 110 0
-112 113 0
112 113 0
-112 -111 111 0
-113 114 0
113 114 0
-113 -112 112 0
-114 115 0
114 115 0
-114 -113 113 0
-115 116 0
115 116 0
-115 -114 114 0
-116 117 0
116 117 0
-116 -115 115 0
-117 118 0
117 118 0
-117 -116 116 0
-118 119 0
118 119 0
-118 -117 117 0
-119 120 0
119 120 0
-119 -118 118 0
-120 121 0
120 121 0
-120 -119 119 0
-121 122 0
121 122 0
-121 -120 120 0
-122 123 0
122 123 0
-122 -121 121 0
-123 124 0
123 124 0
-123 -122 122 0
-124 125 0
124 125 0
-124 -123 123 0
-125 126 0
125 126 0
-125 -124 124 0
-126 127 0
126 127 0
-126 -125 125 0
-127 128 0
127 128 0
-127 -126 126 0
-128 129 0
128 129 0
-128 -127 127 0
-129 130 0
129 130 0
-129 -128 128 0
-130 131 0
130 131 0
-130 -129 129 0
-131 132 0
131 132 0
-131 -130 130 0
-132 133 0
132 133 0
-132 -131 131 0
-133 134 0
133 134 0
-133 -132 132 0
-134 135 0
134 135 0
-134 -133 133 0
-135 136 0
135 136 0
-135 -134 134 0
-136 137 0
136 137 0
-136 -135 135 0
-137 138 0
137 138 0
-137 -136 136 0
-138 139 0
138 139 0
-138 -137 137 0
-139 140 0
139 140 0
-139 -138 138 0
-140 141 0
140 141 0
-140 -139 139 0
-141 142 0
141 142 0
-141 -140 140 0
-142 143 0
142 143 0
-142 -141 141 0
-143 144 0
143 144 0
-143 -142 142 0
-144 145 0
144 145 0
-144 -143 143 0
-145 146 0
145 146 0
-145 -144 144 0
-146 147 0
146 147 0
-146 -145 145 0
-147 148 0
147 148 0
-147 -146 146 0
-148 149 0
148 149 0
-148 -147 147 0
-149 150 0
149 150 0
-149 -148 148 0
-150 151 0
150 151 0
-150 -149 149 0
-151 152 0
151 152 0
-151 -150 150 0
-152 153 0
152 153 0
-152 -151 151 0
-153 154 0
153 154 0
-153 -152 152 0
-154 155 0
154 155 0
-154 -153 153 0
-155 156 0
155 156 0
-155 -154 154 0
-156 157 0
156 157 0
-156 -155 155 0
-157 158 0
157 158 0
-157 -156 156 0
-158 159 0
158 159 0
-158 -157 157 0
-159 160 0
159 160 0
-159 -158 158 0
-160 161 0
160 161 0
-160 -159 159 0
-161 162 0
161 162 0
-161 -160 160 0
-162 163 0
162 163 0
-162 -161 161 0
-163 164 0
163 164 0
-163 -162 162 0
-164 165 0
164 165 0
-164 -163 163 0
-165 166 0
165 166 0
-165 -164 164 0
-166 167 0
166 167 0
-166 -165 165 0
-167 168 0
167 168 0
-167 -166 166 0
-168 169 0
168 169 0
-168 -167 167 0
-169 170 0
169 170 0
-169 -168 168 0
-170 171 0
170 171 0
-170 -169 169 0
-171 172 0
171 172 0
-171 -170 170 0
-172 173 0
172 173 0
-172 -171 171 0
-173 174 0
173 174 0
-173 -172 172 0
-174 175 0
174 175 0
-174 -173 173 0
-175 176 0
175 176 0
-175 -174 174 0
-176 177 0
176 177 0
-176 -175 175 0
-177 178 0
177 178 0
-177 -176 176 0
-178 179 0
178 179 0
-178 -177 177 0
-179 180 0
179 180 0
-179 -178 178 0
-180 181 0
180 181 0
-180 -179 179 0
-181 182 0
181 182 0
-181 -180 180 0
-182 183 0
182 183 0
-182 -181 181 0
-183 184 0
183 184 0
-183 -182 182 0
-184 185 0
184 185 0
-184 -183 183 0
-185 186 0
185 186 0
-185 -184 184 0
-186 187 0
186 187 0
-186 -185 185 0
-187 188 0
187 188 0
-187 -186 186 0
-188 189 0
188 189 0
-188 -187 187 0
-189 190 0
189 190 0
-189 -188 188 0
-190 191 0
190 191 0
-190 -189 189 0
-191 192 0
191 192 0
-191 -190 190 0
-192 193 0
192 193 0
-192 -191 191 0
-193 194 0
193 194 0
-193 -192 192 0
-194 195 0
194 195 0
-194 -193 193 0
-195 196 0
195 196 0
-195 -194 194 0
-196 197 0
196 197 0
-196 -195 195 0
-197 198 0
197 198 0
-197 -196 196 0
-198 199 0
198 199 0
-198 -197 197 0
-199 200 0
199 200 0
-199 -198 198 0
-200 201 0
200 201 0
-200 -199 199 0
-201 202 0
201 202 0
-201 -200 200 0
-202 203 0
202 203 0
-202 -201 201 0
-203 204 0
203 204 0
-203 -202 202 0
-204 205 0
204 205 0
-204 -203 203 0
-205 206 0
205 206 0
-205 -204 204 0
-206 207 0
206 207 0
-206 -205 205 0
-207 208 0
207 208 0
-207 -206 206 0
-208 209 0
208 209 0
-208 -207 207 0
-209 210 0
209 210 0
-209 -208 208 0
-210 211 0
210 211 0
-210 -209 209 0
-211 212 0
211 212 0
-211 -210 210 0
-212 213 0
212 213 0
-212 -211 211 0
-213 214 0
213 214 0
-213 -212 212 0
-214 215 0
214 215 0
-214 -213 213 0
-215 216 0
215 216 0
-215 -214 214 0
-216 217 0
216 217 0
-216 -215 215 0
-217 218 0
217 218 0
-217 -216 216 0
-218 219 0
218 219 0
-218 -217 217 0
-219 220 0
219 220 0
-219 -218 218 0
-220 221 0
220 221 0
-220 -219 219 0
-221 222 0
221 222 0
-221 -220 220 0
-222 223 0
222 223 0
-222 -221 221 0
-223 224 0
223 224 0
-223 -222 222 0
-224 225 0
224 225 0
-224 -223 223 0
-225 226 0
225 226 0
-225 -224 224 0
-226 227 0
226 227 0
-226 -225 225 0
-227 228 0
227 228 0
-227 -226 226 0
-228 229 0
228 229 0
-228 -227 227 0
-229 230 0
229 230 0
-229 -228 228 0
-230 231 0
230 231 0
-230 -229 229 0
-231 232 0
231 232 0
-231 -230 230 0
-232 233 0
232 233 0
-232 -231 231 0
-233 234 0
233 234 0
-233 -232 232 0
-234 235 0
234 235 0
-234 -233 233 0
-235 236 0
235 236 0
-235 -234 234 0
-236 237 0
236 237 0
-236 -235 235 0
-237 238 0
237 238 0
-237 -236 236 0
-238 239 0
238 239 0
-238 -237 237 0
-239 240 0
239 240 0
-239 -238 238 0
-240 241 0
240 241 0
-240 -239 239 0
-241 242 0
241 242 0
-241 -240 240 0
-242 243 0
242 243 0
-242 -241 241 0
-243 244 0
243 244 0
-243 -242 242 0
-244 245 0
244 245 0
-244 -243 243 0
-245 246 0
245 246 0
-245 -244 244 0
-246 247 0
246 247 0
-246 -245 245 0
-247 248 0
247 248 0
-247 -246 246 0
-248 249 0
248 249 0
-248 -247 247 0
-249 250 0
249 250 0
-249 -248 248 0
-250 251 0
250 251 0
-250 -249 249 0
-251 252 0
251 252 0
-251 -250 250 0
-252 253 0
252 253 0
-252 -251 251 0
-253 254 0
253 254 0
-253 -252 252 0
-254 255 0
254 255 0
-254 -253 253 0
-255 256 0
255 256 0
-255 -254 254 0
-256 257 0
256 257 0
-256 -255 255 0
-257 258 0
257 258 0
-257 -256 256 0
-258 259 0
258 259 0
-258 -257 257 0
-259 260 0
259 260 0
-259 -258 258 0
-260 261 0
260 261 0
-260 -259 259 0
-261 262 0
261 262 0
-261 -260 260 0
-262 263 0
262 263 0
-262 -261 261 0
-263 264 0
263 264 0
-263 -262 262 0
-264 265 0
264 265 0
-264 -263 263 0
-265 266 0
265 266 0
-265 -264 264 0
-266 267 0
266 267 0
-266 -265 265 0
-267 268 0
267 268 0
-267 -266 266 0
-268 269 0
268 269 0
-268 -267 267 0
-269 270 0
269 270 0
-269 -268 268 0
-270 271 0
270 271 0
-270 -269 269 0
-271 272 0
271 272 0
-271 -270 270 0
-272 273 0
272 273 0
-272 -271 271 0
-273 274 0
273 274 0
-273 -272 272 0
-274 275 0
274 275 0
-274 -273 273 0
-275 276 0
275 276 0
-275 -274 274 0
-276 277 0
276 277 0
-276 -275 275 0
-277 278 0
277 278 0
-277 -276 276 0
-278 279 0
278 279 0
-278 -277 277 0
-279 280 0
279 280 0
-279 -278 278 0
-280 281 0
280 281 0
-280 -279 279 0
-281 282 0
281 282 0
-281 -280 280 0
-282 283 0
282 283 0
-282 -281 281 0
-283 284 0
283 284 0
-283 -282 282 0
-284 285 0
284 285 0
-284 -283 283 0
-285 286 0
285 286 0
-285 -284 284 0
-286 287 0
286 287 0
-286 -285 285 0
-287 288 0
287 288 0
-287 -286 286 0
-288 289 0
288 289 0
-288 -287 287 0
-289 290 0
289 290 0
-289 -288 288 0
-290 291 0
290 291 0
-290 -289 289 0
-291 292 0
291 292 0
-291 -290 290 0
-292 293 0
292 293 0
-292 -291 291 0
-293 294 0
293 294 0
-293 -292 292 0
-294 295 0
294 295 0
-294 -293 293 0
-295 296 0
295 296 0
-295 -294 294 0
-296 297 0
296 297 0
-296 -295 295 0
-297 298 0
297 298 0
-297 -296 296 0
-298 299 0
298 299 0
-298 -297 297 0
-299 300 0
299 300 0
-299 -298 298 0
-300 301 0
300 301 0
-300 -299 299 0
-301 302 0
301 302 0
-301 -300 300 0
-302 303 0
302 303 0
-302 -301 301 0
-303 304 0
303 304 0
-303 -302 302 0
-304 305 0
304 305 0
-304 -303 303 0
-305 306 0
305 306 0
-305 -304 304 0
-306 307 0
306 307 0
-306 -305 305 0
-307 308 0
307 308 0
-307 -306 306 0
-308 309 0
308 309 0
-308 -307 307 0
-309 310 0
309 310 0
-309 -308 308 0
-310 311 0
310 311 0
-310 -309 309 0
-311 312 0
311 312 0
-311 -310 310 0
-312 313 0
312 313 0
-312 -311 311 0
-313 314 0
313 314 0
-313 -312 312 0
-314 315 0
314 315 0
-314 -313 313 0
-315 316 0
315 316 0
-315 -314 314 0
-316 317 0
316 317 0
-316 -315 315 0
-317 318 0
317 318 0
-317 -316 316 0
-318 319 0
318 319 0
-318 -317 317 0
-319 320 0
319 320 0
-319 -318 318 0
-320 321 0
320 321 0
-320 -319 319 0
-321 322 0
321 322 0
-321 -320 320 0
-322 323 0
322 323 0
-322 -321 321 0
-323 324 0
323 324 0
-323 -322 322 0
-324 325 0
324 325 0
-324 -323 323 0
-325 326 0
325 326 0
-325 -324 324 0
-326 327 0
326 327 0
-326 -325 325 0
-327 328 0
327 328 0
-327 -326 326 0
-328 329 0
328 329 0
-328 -327 327 0
-329 330 0
329 330 0
-329 -328 328 0
-330 331 0
330 331 0
-330 -329 329 0
-331 332 0
331 332 0
-331 -330 330 0
-332 333 0
332 333 0
-332 -331 331 0
-333 334 0
333 334 0
-333 -332 332 0
-334 335 0
334 335 0
-334 -333 333 0
-335 336 0
335 336 0
-335 -334 334 0
-336 337 0
336 337 0
-336 -335 335 0
-337 338 0
337 338 0
-337 -336 336 0
-338 339 0
338 339 0
-338 -337 337 0
-339 340 0
339 340 0
-339 -338 338 0
-340 341 0
340 341 0
-340 -339 339 0
-341 342 0
341 342 0
-341 -340 340 0
-342 343 0
342 343 0
-342 -341 341 0
-343 344 0
343 344 0
-343 -342 342 0
-344 345 0
344 345 0
-344 -343 343 0
-345 346 0
345 346 0
-345 -344 344 0
-346 347 0
346 347 0
-346 -345 345 0
-347 348 0
347 348 0
-347 -346 346 0
-348 349 0
348 349 0
-348 -347 347 0
-349 350 0
349 350 0
-349 -348 348 0
-350 351 0
350 351 0
-350 -349 349 0
-351 352 0
351 352 0
-351 -350 350 0
-352 353 0
352 353 0
-352 -351 351 0
-353 354 0
353 354 0
-353 -352 352 0
-354 355 0
354 355 0
-354 -353 353 0
-355 356 0
355 356 0
-355 -354 354 0
-356 357 0
356 357 0
-356 -355 355 0
-357 358 0
357 358 0
-357 -356 356 0
-358 359 0
358 359 0
-358 -357 357 0
-359 360 0
359 360 0
-359 -358 358 0
-360 361 0
360 361 0
-360 -359 359 0
-361 362 0
361 362 0
-361 -360 360 0
-362 363 0
362 363 0
-362 -361 361 0
-363 364 0
363 364 0
-363 -362 362 0
-364 365 0
364 365 0
-364 -363 363 0
-365 366 0
365 366 0
-365 -364 364 0
-366 367 0
366 367 0
-366 -365 365 0
-367 368 0
367 368 0
-367 -366 366 0
-368 369 0
368 369 0
-368 -367 367 0
-369 370 0
369 370 0
-369 -368 368 0
-370 371 0
370 371 0
-370 -369 369 0
-371 372 0
371 372 0
-371 -370 370 0
-372 373 0
372 373 0
-372 -371 371 0
-373 374 0
373 374 0
-373 -372 372 0
-374 375 0
374 375 0
-374 -373 373 0
-375 376 0
375 376 0
-375 -374 374 0
-376 377 0
376 377 0
-376 -375 375 0
-377 378 0
377 378 0
-377 -376 376 0
-378 379 0
378 379 0
-378 -377 377 0
-379 380 0
379 380 0
-379 -378 378 0
-380 381 0
380 381 0
-380 -379 379 0
-381 382 0
381 382 0
-381 -380 380 0
-382 383 0
382 383 0
-382 -381 381 0
-383 384 0
383 384 0
-383 -382 382 0
-384 385 0
384 385 0
-384 -383 383 0
-385 386 0
385 386 0
-385 -384 384 0
-386 387 0
386 387 0
-386 -385 385 0
-387 388 0
387 388 0
-387 -386 386 0
-388 389 0
388 389 0
-388 -387 387 0
-389 390 0
389 390 0
-389 -388 388 0
-390 391 0
390 391 0
-390 -389 389 0
-391 392 0
391 392 0
-391 -390 390 0
-392 393 0
392 393 0
-392 -391 391 0
-393 394 0
393 394 0
-393 -392 392 0
-394 395 0
394 395 0
-394 -393 393 0
-395 396 0
395 396 0
-395 -394 394 0
-396 397 0
396 397 0
-396 -395 395 0
-397 398 0
397 398 0
-397 -396 396 0
-398 399 0
398 399 0
-398 -397 397 0
-399 400 0
399 400 0
-399 -398 398 0
-400 401 0
400 401 0
-400 -399 399 0
-401 402 0
401 402 0
-401 -400 400 0
-402 403 0
402 403 0
-402 -401 401 0
-403 404 0
403 404 0
-403 -402 402 0
-404 405 0
404 405 0
-404 -403 403 0
-405 406 0
405 406 0
-405 -404 404 0
-406 407 0
406 407 0
-406 -405 405 0
-407 408 0
407 408 0
-407 -406 406 0
-408 409 0
408 409 0
-408 -407 407 0
-409 410 0
409 410 0
-409 -408 408 0
-410 411 0
410 411 0
-410 -409 409 0
-411 412 0
411 412 0
-411 -410 410 0
-412 413 0
412 413 0
-412 -411 411 0
-413 414 0
413 414 0
-413 -412 412 0
-414 415 0
414 415 0
-414 -413 413 0
-415 416 0
415 416 0
-415 -414 414 0
-416 417 0
416 417 0
-416 -415 415 0
-417 418 0
417 418 0
-417 -416 416 0
-418 419 0
418 419 0
-418 -417 417 0
-419 420 0
419 420 0
-419 -418 418 0
-420 421 0
420 421 0
-420 -419 419 0
-421 422 0
421 422 0
-421 -420 420 0
-422 423 0
422 423 0
-422 -421 421 0
-423 424 0
423 424 0
-423 -422 422 0
-424 425 0
424 425 0
-424 -423 423 0
-425 426 0
425 426 0
-425 -424 424 0
-426 427 0
426 427 0
-426 -425 425 0
-427 428 0
427 428 0
-427 -426 426 0
-428 429 0
428 429 0
-428 -427 427 0
-429 430 0
429 430 0
-429 -428 428 0
-430 431 0
430 431 0
-430 -429 429 0
-431 432 0
431 432 0
-431 -430 430 0
-432 433 0
432 433 0
-432 -431 431 0
-433 434 0
433 434 0
-433 -432 432 0
-434 435 0
434 435 0
-434 -433 433 0
-435 436 0
435 436 0
-435 -434 434 0
-436 437 0
436 437 0
-436 -435 435 0
-437 438 0
437 438 0
-437 -436 436 0
-438 439 0
438 439 0
-438 -437 437 0
-439 440 0
439 440 0
-439 -438 438 0
-440 441 0
440 441 0
-440 -439 439 0
-441 442 0
441 442 0
-441 -440 440 0
-442 443 0
442 443 0
-442 -441 441 0
-443 444 0
443 444 0
-443 -442 442 0
-444 445 0
444 445 0
-444 -443 443 0
-445 446 0
445 446 0
-445 -444 444 0
-446 447 0
446 447 0
-446 -445 445 0
-447 448 0
447 448 0
-447 -446 446 0
-448 449 0
448 449 0
-448 -447 447 0
-449 450 0
449 450 0
-449 -448 448 0
-450 451 0
450 451 0
-450 -449 449 0
-451 452 0
451 452 0
-451 -450 450 0
-452 453 0
452 453 0
-452 -451 451 0
-453 454 0
453 454 0
-453 -452 452 0
-454 455 0
454 455 0
-454 -453 453 0
-455 456 0
455 456 0
-455 -454 454 0
-456 457 0
456 457 0
-456 -455 455 0
-457 458 0
457 458 0
-457 -456 456 0
-458 459 0
458 459 0
-458 -457 457 0
-459 460 0
459 460 0
-459 -458 458 0
-460 461 0
460 461 0
-460 -459 459 0
-461 462 0
461 462 0
-461 -460 460 0
-462 463 0
462 463 0
-462 -461 461 0
-463 464 0
463 464 0
-463 -462 462 0
-464 465 0
464 465 0
-464 -463 463 0
-465 466 0
465 466 0
-465 -464 464 0
-466 467 0
466 467 0
-466 -465 465 0
-467 468 0
467 468 0
-467 -466 466 0
-468 469 0
468 469 0
-468 -467 467 0
-469 470 0
469 470 0
-469 -468 468 0
-470 471 0
470 471 0
-470 -469 469 0
-471 472 0
471 472 0
-471 -470 470 0
-472 473 0
472 473 0
-472 -471 471 0
-473 474 0
473 474 0
-473 -472 472 0
-474 475 0
474 475 0
-474 -473 473 0
-475 476 0
475 476 0
-475 -474 474 0
-476 477 0
476 477 0
-476 -475 475 0
-477 478 0
477 478 0
-477 -476 476 0
-478 479 0
478 479 0
-478 -477 477 0
-479 480 0
479 480 0
-479 -478 478 0
-480 481 0
480 481 0
-480 -479 479 0
-481 482 0
481 482 0
-481 -480 480 0
-482 483 0
482 483 0
-482 -481 481 0
-483 484 0
483 484 0
-483 -482 482 0
-484 485 0
484 485 0
-484 -483 483 0
-485 486 0
485 486 0
-485 -484 484 0
-486 487 0
486 487 0
-486 -485 485 0
-487 488 0
487 488 0
-487 -486 486 0
-488 489 0
488 489 0
-488 -487 487 0
-489 490 0
489 490 0
-489 -488 488 0
-490 491 0
490 491 0
-490 -489 489 0
-491 492 0
491 492 0
-491 -490 490 0
-492 493 0
492 493 0
-492 -491 491 0
-493 494 0
493 494 0
-493 -492 492 0
-494 495 0
494 495 0
-494 -493 493 0
-495 496 0
495 496 0
-495 -494 494 0
-496 497 0
496 497 0
-496 -495 495 0
-497 498 0
497 498 0
-497 -496 496 0
-498 499 0
498 499 0
-498 -497 497 0
-499 500 0
499 500 0
-499 -498 498 0
